Route 1: 80 2 49 48 41 101 63 9
Route 2: 56 103 10 34 102 5 88 25 104
Route 3: 6 47 90 52 86 12 78 7
Route 4: 87 11 64 73 22 76 89 97
Route 5: 15 4 109 39 92 110 70
Route 6: 19 85 26 57 31 72 81 3 29 40
Route 7: 30 45 82 95 38 8 108 36
Route 8: 68 46 35 21 75 79 91 33 106
Route 9: 50 20 59 13 42 69 51 53
Route 10: 55 96 60 66 100 44 28 18 32
Route 11: 17 71 24 14 58 83 74
Route 12: 27 54 16 67 99 43 98 93 107
Route 13: 94 37 65 105 61 62 23 84 77
Cost 16958.42
